10J3M/DAT/10J3MUTA-1.dat
10 3
3.2538 10.5872
28.4728 810.7003
11.2598 126.7831
12.9921 168.7947
26.066 679.4364
22.0523 486.3039
28.7843 828.5359
9.9364 98.732
30.2382 914.3487
17.7304 314.3671
1109.6473