10J3M/SOL/10J3MUTA-1.sol
solution status: optimal solution found
objective value:                     75.8006031967697
x#1#3                                               1 	(obj:0)
x#2#1                                               1 	(obj:0)
x#4#3                                               1 	(obj:0)
x#5#1                               0.530788872101268 	(obj:0)
x#5#2                               0.469211127898732 	(obj:0)
x#6#2                                0.49016428994032 	(obj:0)
x#6#3                                0.50983571005968 	(obj:0)
x#7#1                                               1 	(obj:0)
x#8#1                               0.594087230974893 	(obj:0)
x#8#3                              0.0306746947337155 	(obj:0)
x#9#2                                               1 	(obj:0)
x#10#1                              0.246455482904124 	(obj:0)
x#10#2                              0.753544517095876 	(obj:0)
z                                    75.8006031967697 	(obj:1)
